# Created by charmm2lammps v1.9.2 on Текущая дата: 21.02.2022 
# Command: charmm2lammps.pl -l=20 wat solvate

units           real
boundary		p p p
neigh_modify    delay 1 every 1 check yes

atom_style      full
bond_style      harmonic
angle_style     charmm
dihedral_style	charmm
improper_style	harmonic
special_bonds   charmm
pair_style      lj/charmm/coul/long 10 12
pair_modify     mix arithmetic
kspace_style    pppm 0.0001

variable 		name index efield
read_data       solvate.data

shell			mkdir ${name}.out
shell			cd ${name}.out

#thermo          10
#thermo_style    multi

thermo_style	custom step temp press lx ke pe etotal density
thermo          100

minimize 		0.0 0.0 1000 10000

velocity        all create 300.0 1234567 mom yes rot yes dist gaussian

fix				1 all nvt temp 300.0 300.0 100
timestep        1.0
run				2000
unfix			1

fix             1 all npt temp 300.0 300.0 100 iso 1.0 1.0 1000
run				4000

reset_timestep  0

group			oxygens type 2

compute			1 all rdf 100 2 2 1 2
compute			2 oxygens msd com yes

fix				2 all ave/time 100 40 5000 c_1[*] ave running file RDF.txt mode vector
fix 			3 all print 100 "$(step) $(temp) $(press) $(lx:%.3f) $(1000*density:%.5g)" file thermo.txt title "Step T p L rho(kg/m3)" screen no
#fix				3 all print 100 "$(step) $(temp) $(density)" file T_and_rho.txt screen no
fix				4 all print 100 "$(step) $(c_2[4])" file MSD.txt

dump			1 all custom 1 dump.unwrapped.*.txt mol type xu yu zu
dump_modify		1 sort id
dump			2 all dcd 100 frames.dcd
dump_modify		2 unwrap yes

run             5000
